% Número total de personas
n = 180;

% Número de opiniones posibles
m = 3;

% Distribución inicial de personas por opinión
p = [40, 55, 85];

% Valores de las opiniones
v = [0.023, 0.829, 0.836];

% Costos extras al mover a opiniones vacías
ce = [6.860, 16.049, 19.160];

% Matriz de costos de mover de una opinión a otra
C = array2d(1..3, 1..3,
  [
    0.000,    3.954,    1.229,
    3.902,    0.000,    3.538,
    5.042,    3.334,    0.000
  ]);

% Costo total máximo permitido
C_max = 15.370;

% Número máximo de movimientos permitidos
M_max = 25;
